25903
293,389,473,520,571,599,620,660,669,732,789,830,893,968,996,1078,1091,1143,1361,1457,1583,1594,1943,2045,2241,2466,2504,2539,2603,2720,2802,2813,2831,2896,2937,3032,3215,3216,3219,3221,3304,3364,3401,3515,3571,3711,3737,3804,3944,3988,4026,4064,4067,4306,4428,4447,4492,4527,4544,4643,4648,4874,4905
